
Gurobi 7.0.2 (linux64, Matlab) logging started Sun Sep  2 08:55:42 2018


Gurobi 7.0.2 (linux64) logging started Sun Sep  2 08:55:42 2018

Optimize a model with 5114 rows, 6034 columns and 355369 nonzeros
Coefficient statistics:
  Matrix range     [1e+00, 3e+01]
  Objective range  [5e-01, 5e-01]
  Bounds range     [1e+00, 1e+00]
  RHS range        [1e+00, 1e+00]
Iteration    Objective       Primal Inf.    Dual Inf.      Time
       0    1.0000000e+00   0.000000e+00   0.000000e+00      0s

Solved in 0 iterations and 0.01 seconds
Optimal objective  1.000000000e+00
